************************************************************************
file with basedata            : md358_.bas
initial value random generator: 1412646353
************************************************************************
projects                      :  1
jobs (incl. supersource/sink ):  22
horizon                       :  145
RESOURCES
  - renewable                 :  2   R
  - nonrenewable              :  2   N
  - doubly constrained        :  0   D
************************************************************************
PROJECT INFORMATION:
pronr.  #jobs rel.date duedate tardcost  MPM-Time
    1     20      0       31       14       31
************************************************************************
PRECEDENCE RELATIONS:
jobnr.    #modes  #successors   successors
   1        1          3           2   3   4
   2        3          2          19  21
   3        3          1          18
   4        3          3           5   7  19
   5        3          3           6   8  11
   6        3          2          10  14
   7        3          3          11  12  15
   8        3          1           9
   9        3          2          12  13
  10        3          3          12  15  17
  11        3          3          14  16  17
  12        3          2          16  20
  13        3          3          14  17  18
  14        3          1          21
  15        3          2          16  18
  16        3          1          21
  17        3          1          20
  18        3          1          20
  19        3          1          22
  20        3          1          22
  21        3          1          22
  22        1          0        
************************************************************************
REQUESTS/DURATIONS:
jobnr. mode duration  R 1  R 2  N 1  N 2
------------------------------------------------------------------------
  1      1     0       0    0    0    0
  2      1     4       5    3    5    8
         2     5       5    2    3    6
         3     7       5    2    2    6
  3      1     7       9    3    6    5
         2     7      10    3    5    7
         3     9       9    3    5    4
  4      1     3       8   10    7    8
         2     7       7    7    7    4
         3     8       7    5    6    2
  5      1     1       8    9    5    9
         2     3       7    9    4    5
         3     5       7    9    3    2
  6      1    10       5    2    2    8
         2    10       3    4    8    8
         3    10       4    2    5    9
  7      1     1       5    4    6    6
         2     3       3    4    5    5
         3     4       1    1    4    4
  8      1     1       5    8    8   10
         2     2       4    7    7    9
         3     4       3    7    7    9
  9      1     4       9    6    4    9
         2     5       9    4    2    8
         3     7       9    1    1    8
 10      1     5       8    9    7    6
         2     8       8    9    7    4
         3     9       7    8    6    1
 11      1     5       8    8    2    9
         2     6       7    5    2    7
         3     9       6    4    2    6
 12      1     7       5    7    9    8
         2     7       5   10    8    8
         3    10       4    6    6    3
 13      1     4       4    6    8    8
         2     6       2    5    7    1
         3     6       1    5    7    2
 14      1     5       7    7    7    2
         2     5       7    8    6    2
         3     8       5    7    3    1
 15      1     3       8    9    7    9
         2     5       7    9    4    5
         3     7       5    7    3    3
 16      1     3       9    4    8    8
         2     6       9    3    7    7
         3     9       7    3    6    7
 17      1     1       6    7    7    7
         2     2       5    7    5    6
         3     3       4    7    5    5
 18      1     5       8    9    8    2
         2     7       7    7    8    2
         3     8       7    6    7    2
 19      1     1       6    8    7    7
         2     8       4    8    6    6
         3    10       4    4    3    5
 20      1     1       6    5    7    8
         2     2       4    4    6    7
         3     7       3    4    6    7
 21      1     2       9    8    3    9
         2     4       5    6    3    8
         3     5       1    4    3    7
 22      1     0       0    0    0    0
************************************************************************
RESOURCEAVAILABILITIES:
  R 1  R 2  N 1  N 2
   22   20   98  106
************************************************************************
MAXIMAL LAGS:
from  to  type  delay
    1   22   ES      0
    1    2   ES      0
    2   22   ES      0
    1    3   ES      0
    3   22   ES      0
    1    4   ES      0
    4   22   ES      0
    1    5   ES      0
    5   22   ES      0
    1    6   ES      0
    6   22   ES      0
    1    7   ES      0
    7   22   ES      0
    1    8   ES      0
    8   22   ES      0
    1    9   ES      0
    9   22   ES      0
    1   10   ES      0
   10   22   ES      0
    1   11   ES      0
   11   22   ES      0
    1   12   ES      0
   12   22   ES      0
    1   13   ES      0
   13   22   ES      0
    1   14   ES      0
   14   22   ES      0
    1   15   ES      0
   15   22   ES      0
    1   16   ES      0
   16   22   ES      0
    1   17   ES      0
   17   22   ES      0
    1   18   ES      0
   18   22   ES      0
    1   19   ES      0
   19   22   ES      0
    1   20   ES      0
   20   22   ES      0
    1   21   ES      0
   21   22   ES      0
    1   22   ES      0
    2   19   SS    -11
    2   19   SE     -3
    2   19   ES      4
    2   19   EE     -1
    2   21   SS    -10
    2   21   SE      9
    2   21   ES     -3
    2   21   EE      8
    3   18   SS     -8
    3   18   SE    -11
    3   18   ES     -8
    3   18   EE     -1
    4    5   SS      7
    4    5   SE     -5
    5    4   SE      0
    4    5   ES      0
    4    5   EE     -3
    4    7   SS     -1
    4    7   SE    -11
    4    7   ES      9
    4    7   EE     -8
    4   19   SS      5
    4   19   SE     -7
    4   19   ES     11
    4   19   EE     -5
    5    6   SS     -9
    5    6   SE     -5
    5    6   ES     -4
    5    6   EE     -8
    5    8   SS      3
    5    8   SE     -1
    5    8   ES     12
    5    8   EE     -1
    5   11   SS      2
    5   11   SE      0
    5   11   ES      2
    5   11   EE     -7
    6   10   SS      7
    6   10   SE      7
    6   10   ES    -10
    6   10   EE     -9
    6   14   SS     10
    6   14   SE     -2
    6   14   ES     -3
    6   14   EE      6
    7   11   SS    -12
    7   11   SE     11
    7   11   ES     -3
    7   11   EE      8
    7   12   SS     -4
    7   12   SE     -6
    7   12   ES    -10
    7   12   EE      4
    7   15   SS     10
    7   15   SE     -6
    7   15   ES      8
    7   15   EE     -3
    8    9   SS     -5
    8    9   SE      1
    8    9   ES      7
    8    9   EE     -1
    9   12   SS     -5
    9   12   SE    -10
    9   12   ES    -11
    9   12   EE      9
    9   13   SS      8
    9   13   SE     -7
    9   13   ES      9
    9   13   EE      6
   10   12   SS      3
   10   12   SE      3
   10   12   ES     -9
   10   12   EE      9
   10   15   SS      8
   10   15   SE     -9
   10   15   ES     -2
   10   15   EE    -12
   10   17   SS      1
   10   17   SE     -8
   10   17   ES      9
   10   17   EE      6
   11   14   SS     -9
   11   14   SE      9
   11   14   ES      2
   11   14   EE      7
   11   16   SS     -8
   11   16   SE      0
   11   16   ES     -2
   11   16   EE    -10
   11   17   SS      2
   11   17   SE     -6
   11   17   ES     -7
   11   17   EE      4
   12   16   SS     -9
   12   16   SE      1
   12   16   ES     -8
   12   16   EE      9
   12   20   SS      7
   12   20   SE    -10
   12   20   ES     11
   12   20   EE    -11
   13   14   SS     11
   13   14   SE      4
   13   14   ES      3
   13   14   EE     -5
   13   17   SS      7
   13   17   SE     -8
   13   17   ES     -7
   13   17   EE     -9
   13   18   SS      6
   13   18   SE      5
   13   18   ES     -5
   13   18   EE      0
   14   21   SS      6
   14   21   SE    -10
   14   21   ES     -2
   14   21   EE      2
   15   16   SS     -6
   15   16   SE      9
   15   16   ES      2
   15   16   EE      1
   15   18   SS     12
   15   18   SE      3
   15   18   ES     -9
   15   18   EE     12
   16   21   SS    -12
   16   21   SE     -1
   16   21   ES     -8
   16   21   EE      6
   17   20   SS      4
   17   20   SE      9
   17   20   ES      2
   17   20   EE      3
   18   20   SS    -12
   18   20   SE      2
   18   20   ES      8
   18   20   EE     -3
************************************************************************
